Read MPS format model from file dat/rmp/DER_48_4096_49.mps
Reading time = 0.47 seconds
: 4144 rows, 29328 columns, 1271654 nonzeros
Gurobi Optimizer version 9.0.0 build v9.0.0rc2 (linux64)
Optimize a model with 4144 rows, 29328 columns and 1271654 nonzeros
Model fingerprint: 0x3c6cf8cc
Coefficient statistics:
  Matrix range     [3e-05, 1e+01]
  Objective range  [4e-01, 1e+03]
  Bounds range     [2e+04, 2e+04]
  RHS range        [1e+00, 1e+00]
Ordering time: 0.01s

Barrier statistics:
 AA' NZ     : 1.880e+05
 Factor NZ  : 2.342e+05 (roughly 15 MBytes of memory)
 Factor Ops : 1.379e+07 (less than 1 second per iteration)
 Threads    : 1

                  Objective                Residual
Iter       Primal          Dual         Primal    Dual     Compl     Time
   0   7.19346803e+08 -6.76684071e+07  1.13e+07 2.17e-02  4.10e+05     0s
   1   1.51539582e+07 -1.10249174e+07  1.95e+05 5.46e-12  7.51e+03     0s
   2   1.53201986e+06 -4.45144081e+06  1.94e+04 1.82e-12  8.64e+02     0s
   3   2.69628257e+04 -2.49797287e+06  1.46e+02 6.71e-12  8.99e+01     0s
   4   1.22911268e+04 -1.13870376e+04  4.33e-11 2.73e-12  8.06e-01     1s
   5   1.22402966e+04  1.01727424e+04  7.16e-11 1.82e-12  7.04e-02     1s
   6   1.21240423e+04  1.17028975e+04  5.77e-11 1.82e-12  1.43e-02     1s
   7   1.20849396e+04  1.19023727e+04  1.00e-10 3.64e-12  6.21e-03     1s
   8   1.20239952e+04  1.19508245e+04  9.12e-11 1.82e-12  2.49e-03     1s
   9   1.19979891e+04  1.19722624e+04  9.12e-11 2.73e-12  8.76e-04     1s
  10   1.19893778e+04  1.19780202e+04  2.16e-10 1.82e-12  3.87e-04     1s
  11   1.19840908e+04  1.19814173e+04  3.36e-10 3.64e-12  9.10e-05     1s
  12   1.19831182e+04  1.19819479e+04  5.27e-10 1.82e-12  3.98e-05     1s
  13   1.19826472e+04  1.19823380e+04  9.22e-10 5.46e-12  1.05e-05     1s
  14   1.19825797e+04  1.19823841e+04  8.33e-10 2.73e-12  6.66e-06     1s
  15   1.19825320e+04  1.19824123e+04  2.08e-09 1.82e-12  4.07e-06     1s
  16   1.19825066e+04  1.19824237e+04  1.37e-09 1.82e-12  2.82e-06     1s
  17   1.19824856e+04  1.19824353e+04  1.14e-09 1.82e-12  1.71e-06     2s
  18   1.19824721e+04  1.19824406e+04  1.55e-09 1.82e-12  1.07e-06     2s
  19   1.19824614e+04  1.19824438e+04  2.13e-09 1.82e-12  5.99e-07     2s
  20   1.19824558e+04  1.19824455e+04  2.71e-09 1.82e-12  3.50e-07     2s
  21   1.19824508e+04  1.19824461e+04  8.12e-09 1.82e-12  1.60e-07     2s
  22   1.19824486e+04  1.19824463e+04  2.03e-08 1.82e-12  7.57e-08     2s
  23   1.19824477e+04  1.19824465e+04  2.34e-08 1.82e-12  4.06e-08     2s
  24   1.19824470e+04  1.19824466e+04  5.56e-08 3.64e-12  1.37e-08     2s
  25   1.19824466e+04  1.19824466e+04  4.13e-08 1.82e-12  1.54e-09     2s

Barrier solved model in 25 iterations and 1.98 seconds
Optimal objective 1.19824466e+04

Solve time: 1.979059747
Barrier iterations: 25
